NAME 
ROWS
 N  OBJ
 L  R0      
 E  R1      
 E  R2      
 E  R3      
 E  R4      
 E  R5      
 E  R6      
 E  R7      
 E  R8      
 E  R9      
 E  R10     
 E  R11     
 E  R12     
 E  R13     
 E  R14     
 E  R15     
 E  R16     
 E  R17     
 E  R18     
 E  R19     
 E  R20     
 E  R21     
 E  R22     
 E  R23     
 E  R24     
 E  R25     
COLUMNS
    MARKER    'MARKER'                 'INTORG'
    I0(9)     OBJ       128
    I0(9)     R0        -8
    I0(9)     R2        14
    I0(9)     R4        3
    I0(9)     R6        8
    I0(9)     R7        13
    I0(9)     R8        14
    I0(9)     R9        13
    I0(9)     R10       18
    I0(9)     R25       1
    I1(8)     OBJ       6
    I1(8)     R0        64
    I1(8)     R1        9
    I1(8)     R2        13
    I1(8)     R3        19
    I1(8)     R6        11
    I1(8)     R8        13
    I1(8)     R9        9
    I1(8)     R25       1
    I2(9)     OBJ       -146
    I2(9)     R0        -137
    I2(9)     R2        6
    I2(9)     R4        7
    I2(9)     R6        1
    I2(9)     R7        19
    I2(9)     R8        14
    I2(9)     R9        7
    I2(9)     R10       5
    I2(9)     R25       1
    I3(10)    OBJ       -77
    I3(10)    R0        91
    I3(10)    R1        10
    I3(10)    R2        6
    I3(10)    R3        15
    I3(10)    R4        6
    I3(10)    R5        16
    I3(10)    R6        16
    I3(10)    R8        15
    I3(10)    R9        1
    I3(10)    R25       1
    I4(6)     OBJ       84
    I4(6)     R0        186
    I4(6)     R1        15
    I4(6)     R3        7
    I4(6)     R4        16
    I4(6)     R9        2
    I4(6)     R25       1
    I5(9)     OBJ       -22
    I5(9)     R0        -148
    I5(9)     R2        8
    I5(9)     R4        9
    I5(9)     R5        11
    I5(9)     R7        8
    I5(9)     R8        15
    I5(9)     R9        4
    I5(9)     R10       19
    I5(9)     R25       1
    I6(10)    OBJ       -17
    I6(10)    R0        14
    I6(10)    R1        4
    I6(10)    R3        15
    I6(10)    R4        7
    I6(10)    R5        8
    I6(10)    R6        3
    I6(10)    R7        10
    I6(10)    R8        9
    I6(10)    R10       17
    I6(10)    R25       1
    I7(6)     OBJ       -186
    I7(6)     R0        47
    I7(6)     R1        3
    I7(6)     R2        13
    I7(6)     R3        14
    I7(6)     R5        7
    I7(6)     R25       1
    I8(10)    OBJ       -185
    I8(10)    R0        137
    I8(10)    R1        4
    I8(10)    R2        16
    I8(10)    R3        10
    I8(10)    R4        5
    I8(10)    R5        -1
    I8(10)    R8        6
    I8(10)    R9        14
    I8(10)    R10       16
    I8(10)    R25       1
    I9(11)    OBJ       -109
    I9(11)    R0        158
    I9(11)    R1        1
    I9(11)    R2        3
    I9(11)    R3        15
    I9(11)    R4        16
    I9(11)    R5        16
    I9(11)    R7        16
    I9(11)    R8        8
    I9(11)    R9        19
    I9(11)    R10       15
    I9(11)    R25       1
    MARKER    'MARKER'                 'INTEND'
    C10(19)   OBJ       -8
    C10(19)   R0        5
    C10(19)   R2        10
    C10(19)   R3        9
    C10(19)   R4        13
    C10(19)   R5        7
    C10(19)   R6        13
    C10(19)   R8        8
    C10(19)   R10       12
    C10(19)   R11       5
    C10(19)   R12       9
    C10(19)   R14       14
    C10(19)   R15       5
    C10(19)   R17       17
    C10(19)   R18       16
    C10(19)   R19       12
    C10(19)   R20       4
    C10(19)   R21       6
    C10(19)   R22       1
    C10(19)   R23       15
    C11(19)   OBJ       1
    C11(19)   R0        9
    C11(19)   R1        5
    C11(19)   R2        4
    C11(19)   R3        6
    C11(19)   R4        9
    C11(19)   R5        1
    C11(19)   R6        17
    C11(19)   R8        1
    C11(19)   R9        13
    C11(19)   R12       19
    C11(19)   R13       -1
    C11(19)   R15       19
    C11(19)   R16       15
    C11(19)   R18       -1
    C11(19)   R19       9
    C11(19)   R21       15
    C11(19)   R22       15
    C11(19)   R23       17
    C11(19)   R24       17
    C12(18)   OBJ       -9
    C12(18)   R0        -6
    C12(18)   R2        4
    C12(18)   R3        1
    C12(18)   R5        14
    C12(18)   R6        16
    C12(18)   R7        3
    C12(18)   R8        11
    C12(18)   R10       1
    C12(18)   R11       12
    C12(18)   R12       17
    C12(18)   R13       17
    C12(18)   R14       -1
    C12(18)   R16       6
    C12(18)   R18       4
    C12(18)   R20       15
    C12(18)   R21       16
    C12(18)   R22       -1
    C12(18)   R23       4
    C13(18)   OBJ       4
    C13(18)   R0        3
    C13(18)   R1        10
    C13(18)   R2        7
    C13(18)   R3        17
    C13(18)   R4        17
    C13(18)   R6        17
    C13(18)   R7        1
    C13(18)   R8        18
    C13(18)   R9        15
    C13(18)   R12       5
    C13(18)   R14       9
    C13(18)   R15       1
    C13(18)   R17       10
    C13(18)   R19       4
    C13(18)   R20       7
    C13(18)   R21       12
    C13(18)   R22       15
    C13(18)   R24       7
    C14(18)   OBJ       2
    C14(18)   R0        -6
    C14(18)   R1        -1
    C14(18)   R4        10
    C14(18)   R5        1
    C14(18)   R6        -1
    C14(18)   R7        5
    C14(18)   R8        13
    C14(18)   R12       12
    C14(18)   R14       4
    C14(18)   R15       16
    C14(18)   R16       5
    C14(18)   R17       17
    C14(18)   R18       9
    C14(18)   R19       12
    C14(18)   R20       4
    C14(18)   R21       11
    C14(18)   R23       5
    C14(18)   R24       12
    C15(17)   OBJ       -3
    C15(17)   R0        4
    C15(17)   R1        7
    C15(17)   R2        9
    C15(17)   R4        3
    C15(17)   R6        6
    C15(17)   R8        16
    C15(17)   R10       8
    C15(17)   R12       12
    C15(17)   R13       2
    C15(17)   R15       3
    C15(17)   R16       18
    C15(17)   R18       1
    C15(17)   R19       4
    C15(17)   R20       19
    C15(17)   R22       15
    C15(17)   R23       18
    C15(17)   R24       11
    C16(15)   OBJ       3
    C16(15)   R0        -5
    C16(15)   R3        13
    C16(15)   R4        14
    C16(15)   R6        17
    C16(15)   R7        2
    C16(15)   R8        14
    C16(15)   R9        12
    C16(15)   R13       14
    C16(15)   R14       14
    C16(15)   R16       4
    C16(15)   R17       13
    C16(15)   R18       19
    C16(15)   R21       1
    C16(15)   R23       19
    C16(15)   R24       3
    C17(17)   OBJ       -10
    C17(17)   R0        -5
    C17(17)   R2        7
    C17(17)   R3        11
    C17(17)   R4        7
    C17(17)   R5        5
    C17(17)   R12       7
    C17(17)   R13       17
    C17(17)   R14       6
    C17(17)   R15       16
    C17(17)   R16       17
    C17(17)   R17       1
    C17(17)   R18       4
    C17(17)   R19       8
    C17(17)   R20       1
    C17(17)   R21       6
    C17(17)   R23       19
    C17(17)   R24       13
    C18(18)   R0        -3
    C18(18)   R1        6
    C18(18)   R2        14
    C18(18)   R3        -1
    C18(18)   R4        12
    C18(18)   R6        14
    C18(18)   R7        1
    C18(18)   R8        12
    C18(18)   R9        10
    C18(18)   R11       16
    C18(18)   R13       8
    C18(18)   R14       10
    C18(18)   R15       15
    C18(18)   R16       6
    C18(18)   R19       1
    C18(18)   R20       18
    C18(18)   R22       -1
    C18(18)   R23       3
    C19(17)   OBJ       -9
    C19(17)   R0        4
    C19(17)   R3        6
    C19(17)   R4        5
    C19(17)   R5        12
    C19(17)   R7        10
    C19(17)   R8        2
    C19(17)   R9        3
    C19(17)   R10       12
    C19(17)   R11       16
    C19(17)   R13       9
    C19(17)   R16       9
    C19(17)   R17       14
    C19(17)   R18       19
    C19(17)   R19       2
    C19(17)   R21       8
    C19(17)   R22       15
    C19(17)   R24       16
    C20(17)   OBJ       -3
    C20(17)   R0        -2
    C20(17)   R1        15
    C20(17)   R3        13
    C20(17)   R5        17
    C20(17)   R6        1
    C20(17)   R7        10
    C20(17)   R8        5
    C20(17)   R10       2
    C20(17)   R11       8
    C20(17)   R13       19
    C20(17)   R14       5
    C20(17)   R15       9
    C20(17)   R17       10
    C20(17)   R20       12
    C20(17)   R21       3
    C20(17)   R23       -1
    C20(17)   R24       16
    C21(14)   OBJ       -1
    C21(14)   R0        -4
    C21(14)   R3        8
    C21(14)   R4        9
    C21(14)   R6        3
    C21(14)   R8        19
    C21(14)   R9        19
    C21(14)   R11       10
    C21(14)   R13       16
    C21(14)   R14       2
    C21(14)   R15       9
    C21(14)   R20       19
    C21(14)   R21       4
    C21(14)   R22       7
    C21(14)   R23       -1
    C22(13)   OBJ       -6
    C22(13)   R0        3
    C22(13)   R2        7
    C22(13)   R5        5
    C22(13)   R8        3
    C22(13)   R9        8
    C22(13)   R10       3
    C22(13)   R11       9
    C22(13)   R13       -1
    C22(13)   R15       5
    C22(13)   R17       8
    C22(13)   R21       6
    C22(13)   R22       1
    C22(13)   R24       7
    C23(17)   OBJ       6
    C23(17)   R0        5
    C23(17)   R3        18
    C23(17)   R4        18
    C23(17)   R5        12
    C23(17)   R6        11
    C23(17)   R8        15
    C23(17)   R9        -1
    C23(17)   R10       12
    C23(17)   R11       10
    C23(17)   R12       2
    C23(17)   R17       4
    C23(17)   R18       14
    C23(17)   R19       12
    C23(17)   R20       18
    C23(17)   R22       3
    C23(17)   R23       16
    C23(17)   R24       18
    C24(12)   OBJ       4
    C24(12)   R0        7
    C24(12)   R1        -1
    C24(12)   R4        16
    C24(12)   R5        16
    C24(12)   R7        2
    C24(12)   R8        9
    C24(12)   R13       19
    C24(12)   R15       19
    C24(12)   R17       -1
    C24(12)   R18       16
    C24(12)   R20       3
    C24(12)   R23       1
    C25(1)    R1        1
    C26(1)    R2        1
    C27(1)    R3        1
    C28(1)    R4        1
    C29(1)    R5        1
    C30(1)    R6        1
    C31(1)    R7        1
    C32(1)    R8        1
    C33(1)    R9        1
    C34(1)    R10       1
    C35(1)    R11       1
    C36(1)    R12       1
    C37(1)    R13       1
    C38(1)    R14       1
    C39(1)    R15       1
    C40(1)    R16       1
    C41(1)    R17       1
    C42(1)    R18       1
    C43(1)    R19       1
    C44(1)    R20       1
    C45(1)    R21       1
    C46(1)    R22       1
    C47(1)    R23       1
    C48(1)    R24       1
    C49(1)    R25       1
RHS
    RHS1      R0        2.2995788948785406e+02
    RHS1      R1        89
    RHS1      R2        79
    RHS1      R3        96
    RHS1      R4        74
    RHS1      R5        96
    RHS1      R6        84
    RHS1      R7        78
    RHS1      R8        60
    RHS1      R9        98
    RHS1      R10       70
    RHS1      R11       87
    RHS1      R12       72
    RHS1      R13       70
    RHS1      R14       96
    RHS1      R15       70
    RHS1      R16       84
    RHS1      R17       93
    RHS1      R18       52
    RHS1      R19       72
    RHS1      R20       91
    RHS1      R21       92
    RHS1      R22       59
    RHS1      R23       69
    RHS1      R24       66
    RHS1      R25       3
BOUNDS
 UP BND1      I0(9)     2
 UP BND1      I1(8)     2
 UP BND1      I2(9)     2
 UP BND1      I3(10)    2
 UP BND1      I4(6)     2
 UP BND1      I5(9)     2
 UP BND1      I6(10)    2
 UP BND1      I7(6)     2
 UP BND1      I8(10)    2
 UP BND1      I9(11)    2
ENDATA
